(set-logic QF_S)
(declare-fun var0 () String)
(declare-fun var1 () String)
(declare-fun var2 () Int)
(declare-fun var3 () String)
(declare-fun var4 () String)
(declare-fun var5 () Int)
(declare-fun var6 () Int)
(declare-fun var7 () Int)
(assert (str.contains var0 var0))
(assert (str.contains (str.replace (str.at var1 var2) (str.replace var3 var4 var1) (str.substr var3 var5 var6)) (str.replace var4 var3 var0)))
(assert (>= (str.indexof var4 var3 var7) (str.to.int var4)))
(assert (> (str.indexof var0 var1 var5) (str.to.int var3)))
(check-sat)